c Random generated cnf formula, satisfiable: true
p cnf 10 50
3 -5 -8 0
-2 7 1 0
-5 8 -6 0
-6 -10 -8 0
8 10 9 0
-2 3 -5 0
6 -10 7 0
-5 9 -4 0
-7 -10 5 0
4 3 -1 0
-8 -5 -10 0
4 -10 8 0
-2 -4 -10 0
6 1 -4 0
9 4 8 0
4 8 -1 0
5 1 7 0
-8 -6 3 0
4 7 -1 0
1 -2 6 0
-7 -4 -5 0
4 -3 9 0
5 3 -6 0
-3 7 2 0
-9 -3 8 0
5 3 -2 0
1 -10 5 0
8 9 -3 0
1 9 -4 0
-5 6 -10 0
5 6 3 0
-1 -4 6 0
9 -3 6 0
-1 7 10 0
-7 10 -1 0
-9 -4 10 0
-1 -2 -3 0
-10 2 -3 0
8 10 6 0
7 5 -10 0
9 3 10 0
5 -10 8 0
-2 6 -1 0
-9 3 -5 0
-3 5 -6 0
-5 9 8 0
6 9 5 0
4 5 7 0
-4 -5 3 0
2 7 -3 0
